20
652
321
true
0.25
3 49 9 45 45 36 33 26 1 18 26 46 47 1 47 33 22 19 37 42
-75 -63 100 2 -78 88 -34 56 -82 96 58 73 97 49 -58 23 76 39 -94 7
0 0 -75 0 0 0 0 0 0 100 0 0 -99 50 -47 0 0 0 36 0
0 -55 0 0 0 0 0 0 -92 0 17 0 -34 0 0 0 0 0 0
0 0 0 0 0 -44 0 0 0 0 0 0 0 0 0 0 0 0
0 0 0 0 65 42 0 0 22 0 6 -94 0 0 0 -58 0
0 95 0 0 -27 0 0 0 -68 0 0 3 0 0 0 0
0 0 84 -28 97 0 0 0 0 0 -4 0 0 0 0
0 0 48 0 0 0 -82 0 0 0 0 0 0 0
0 -94 0 0 0 0 0 0 38 0 0 0 0
0 0 0 0 72 0 0 -88 68 0 0 0
0 7 0 0 71 32 0 -7 28 0 0
0 0 0 0 0 0 0 0 0 0
0 0 95 0 0 0 0 22 3
0 0 0 0 0 0 0 0
0 0 0 0 -60 0 0
0 0 30 39 0 0
0 0 0 0 53
0 -43 56 0
0 0 0
0 0
0 0 0 -57 0 -38 0 0 0 0 0 0 0 -5 0 0 74 0 0
0 -75 0 0 0 0 0 0 0 0 22 0 0 28 0 0 0 0
0 0 0 0 0 0 -87 0 0 0 0 86 0 82 82 0 0
0 0 0 0 0 0 0 0 0 0 0 0 0 -92 0 0
0 0 0 0 0 97 -11 0 0 0 0 0 0 0 93
0 0 0 0 0 0 0 60 -64 0 -82 0 0 0
0 0 0 0 0 0 0 0 0 0 0 -36 -69
0 0 0 0 0 0 0 0 0 0 0 0
0 -48 99 0 -5 67 0 0 0 0 35
0 -53 0 83 0 0 0 0 -25 0
0 0 0 0 0 0 0 0 32
0 56 9 -12 0 0 0 -22
0 0 0 0 0 -18 0
0 0 0 0 -25 0
0 94 0 0 0
0 0 -69 0
0 0 0
0 97
0
0 0 0 0 -57 0 0 0 0 0 -7 0 0 0 0 0 36 0
0 0 0 -79 0 0 0 0 0 0 0 -19 0 0 0 0 -61
0 0 -92 0 0 0 93 0 14 69 0 0 -74 3 0 0
0 0 -37 0 43 0 0 0 0 0 -30 0 0 0 56
0 0 0 0 0 0 0 0 0 0 0 99 0 0
0 -65 0 0 0 93 0 0 0 -89 72 0 30
0 0 46 0 0 0 0 0 0 0 0 0
0 0 0 0 21 -54 0 0 0 0 0
0 0 0 0 0 59 0 0 0 0
0 -96 -92 88 0 0 0 -81 0
0 0 0 0 0 -40 0 0
0 9 5 0 10 0 0
0 0 0 0 0 -13
0 0 0 -29 0
0 0 0 0
0 0 0
0 0
0
0 33 0 0 1 -61 0 -94 74 0 0 0 0 0 0 14 -62
0 0 0 0 0 0 16 0 0 77 -27 48 -70 0 0 57
0 0 0 0 -84 0 0 0 0 0 0 -20 0 0 98
0 0 0 0 0 0 0 0 -80 0 0 0 0 93
0 0 0 -61 0 0 60 0 -71 72 -91 0 0
0 -64 85 0 -92 0 0 0 0 -42 0 0
0 95 27 0 0 0 0 0 0 -5 0
0 0 0 0 0 0 0 0 0 0
0 -97 0 0 0 0 0 0 0
0 0 0 0 0 0 0 0
0 0 0 -67 1 0 0
0 0 38 0 0 62
0 0 0 0 0
0 45 0 0
0 0 36
0 -80
0
0 0 0 0 0 0 0 0 0 0 97 0 0 44 -41 0
0 0 0 32 0 0 0 51 0 0 90 0 -95 0 0
0 0 0 0 0 0 0 -83 0 0 0 0 0 0
0 0 0 -58 0 9 0 0 0 -4 46 0 97
0 -52 0 0 0 0 0 0 0 -25 33 -100
0 0 0 0 0 0 0 -18 0 -31 -36
0 17 0 0 0 0 -90 0 -51 -9
0 0 -16 0 0 0 0 0 -27
0 0 0 0 0 0 0 0
0 0 -22 0 0 0 0
0 0 0 0 0 0
0 94 -87 0 0
0 0 0 0
0 -13 -44
0 0
0
0 -36 -93 0 0 0 -59 0 0 0 -61 -68 0 0 98
0 0 -35 -92 0 0 0 -43 0 0 0 46 -77 0
0 0 0 0 0 0 0 0 0 98 0 63 0
0 -67 -71 0 0 0 0 -45 -10 0 52 0
0 0 0 0 0 0 0 0 0 -98 0
0 -78 0 0 19 0 -80 0 93 0
0 0 0 0 0 0 0 -58 0
0 83 0 0 0 0 -78 -3
0 0 12 0 0 0 88
0 34 0 0 0 0
0 0 18 0 96
0 0 0 0
0 0 -47
0 0
0
0 0 0 0 0 0 -36 -41 0 -45 0 0 0 -31
0 0 0 0 -92 0 0 0 0 0 0 0 0
0 70 0 0 -54 0 0 100 -81 0 28 -12
0 0 0 15 -75 0 0 0 0 0 0
0 0 0 0 0 0 0 0 0 0
0 0 10 -64 0 0 0 -80 0
0 0 0 -68 0 0 0 -1
0 -32 -80 0 50 0 0
0 0 0 0 0 0
0 -39 0 0 -20
0 0 0 -45
0 0 0
0 0
0
0 0 0 0 0 0 67 0 0 62 0 0 0
0 75 -20 -90 0 0 0 -96 0 0 0 0
0 0 -73 0 0 40 0 0 0 0 0
0 75 0 0 0 69 0 -33 0 0
0 14 0 0 -65 0 0 0 0
0 0 0 0 0 0 0 69
0 0 0 11 0 0 0
0 0 -27 2 0 0
0 0 0 -84 0
0 -29 0 0
0 0 0
0 0
0
0 0 0 0 0 -61 -13 0 0 0 0 0
0 0 0 0 0 0 0 0 0 -98 -87
0 0 0 40 0 0 0 36 0 0
0 -51 -4 0 0 0 -41 -28 0
0 43 0 0 0 0 0 0
0 0 59 0 93 24 0
0 0 0 82 0 0
0 0 0 -70 0
0 0 0 0
0 0 0
0 0
0
0 -23 0 0 76 0 92 -72 0 0 42
0 0 0 0 0 0 -100 0 56 -92
0 0 0 0 0 34 0 49 0
0 0 0 0 12 0 0 -65
0 0 0 0 -49 -48 0
0 41 0 -84 23 0
0 0 0 -41 6
0 0 0 0
0 0 0
0 0
0
0 0 0 0 0 0 0 0 -48 0
0 0 86 -96 36 0 0 0 0
0 0 -6 80 0 36 0 0
0 -58 0 0 0 0 0
0 -68 0 0 0 0
0 0 7 0 -60
0 0 0 0
0 0 0
0 0
0
0 -95 0 -70 0 0 0 0 78
0 -21 -46 0 0 0 0 0
0 0 60 -48 0 -57 54
0 0 -28 4 0 0
0 0 0 0 45
0 0 0 0
0 0 -44
0 0
0
0 0 0 0 0 0 0 -17
0 0 0 0 -78 0 -61
0 -88 0 20 -94 0
0 0 0 68 0
0 -68 0 95
0 21 0
0 -83
0
0 0 0 0 0 -15 0
0 0 0 9 -25 0
0 -92 0 0 0
0 0 0 0
0 0 0
0 62
0
0 0 0 -17 0 0
0 80 0 99 0
0 0 0 0
0 0 0
0 0
0
0 0 0 57 0
0 0 0 0
0 4 0
0 -23
0
0 0 63 0
0 0 0
0 0
0
0 0 89
0 0
0
0 0
0
0
193 -422 -263 -473 -376 -227 -814 33 -867 -131 -158 -851 -442 572 -433 292 -221 13 -705 457
64.33333333333333 -8.612244897959183 -29.22222222222222 -10.511111111111111 -8.355555555555556 -6.305555555555555 -24.666666666666668 1.2692307692307692 -867.0 -7.277777777777778 -6.076923076923077 -18.5 -9.404255319148936 572.0 -9.212765957446809 8.848484848484848 -10.045454545454545 0.6842105263157895 -19.054054054054053 10.880952380952381
